0 0
225 373
323 5
400 137
255 30
124 169
30 251
417 339
439 383
108 18
169 43
385 253
332 148
121 142
177 395
459 78
193 498
490 28
137 500
456 475
472 158
226 270
153 303
430 451
239 237
201 420
247 5
69 460
300 24
307 228
46 376
277 402
422 117
258 319
52 443
412 81
413 203
288 13
52 247
388 374
45 444
112 194
362 287
312 488
212 185
394 413
419 99
102 104
293 22
428 7
83 164
63 352
308 311
318 91
237 119
438 58
8 321
345 26
112 350
413 260
349 382
402 331
13 322
326 135
110 37
101 348
239 381
274 153
467 390
293 70
240 349
183 446
90 163
126 275
380 189
269 443
206 127
79 488
353 478
33 135
137 283
68 284
76 36
78 221
410 94
406 396
59 287
179 81
405 255
413 109
427 323
203 113
411 460
59 463
135 430
296 101
415 105
116 40
410 24
275 403
